p cnf 249 1330
-23 21 2 19 25 0
-12 34 35 -4 3 0
36 -8 -38 -32 24 0
7 19 20 -30 -6 0
3 50 -11 5 -20 0
50 6 -32 47 -27 0
33 37 34 16 -27 0
-20 16 17 23 -22 0
41 -48 49 -25 -16 0
-15 -49 -17 7 10 0
-6 -42 10 -15 -50 0
10 46 -6 47 33 0
-31 12 -24 25 -42 0
1 9 38 -29 -49 0
-13 -41 40 20 2 0
40 35 -16 17 -3 0
22 29 49 31 37 0
43 25 -23 21 47 0
17 9 8 7 -26 0
-26 -28 -31 22 29 0
45 19 6 10 -33 0
-4 14 27 47 26 0
-2 -10 -21 -40 -13 0
-15 19 -3 47 39 0
-22 39 32 46 38 0
12 -45 26 40 4 0
-23 -24 37 -50 38 0
18 50 -34 -21 -39 0
-12 24 -27 -45 -31 0
13 27 -36 20 -41 0
-16 -13 34 -25 -50 0
3 32 10 -25 42 0
28 -30 32 23 37 0
-17 -4 -34 -5 -6 0
37 -10 17 -12 -48 0
-50 -37 38 36 18 0
5 11 1 30 -12 0
-47 -2 5 -38 18 0
37 -8 9 -3 13 0
-10 21 -22 -47 36 0
-27 -50 46 -49 -18 0
34 -28 -19 38 15 0
-7 -46 33 6 47 0
-49 -29 -32 6 23 0
-29 43 -2 -22 -42 0
-23 18 27 -25 49 0
-18 -32 -9 -4 -7 0
21 26 30 -9 -47 0
14 -11 -23 -3 37 0
-28 -23 -19 -1 -9 0
45 40 22 16 -32 0
-36 -45 3 8 -12 0
50 -36 -48 2 -7 0
-33 11 41 23 46 0
-2 -30 -24 42 -27 0
6 41 3 -48 -47 0
-50 41 -14 23 -25 0
-48 -16 -44 29 -46 0
-32 37 21 -22 -43 0
10 37 19 -35 -5 0
20 -1 34 -49 27 0
-1 22 -43 -35 -34 0
35 -37 -26 49 -48 0
-38 39 10 -28 -26 0
27 -32 11 40 -17 0
-4 21 11 -25 8 0
14 -17 28 46 30 0
38 -9 -14 44 35 0
19 43 14 7 -21 0
-29 49 11 -42 31 0
22 16 20 -49 -19 0
46 -12 13 -26 28 0
13 -30 26 40 20 0
9 -30 -31 -15 14 0
41 -39 -2 11 -44 0
38 15 8 17 -23 0
-37 30 -17 8 -16 0
14 44 18 -3 26 0
47 -2 -35 42 50 0
49 -3 41 -45 -36 0
-42 -2 4 -9 7 0
-6 40 -28 -3 26 0
22 14 -1 -50 -3 0
-32 -21 -24 -6 9 0
-17 -23 4 -36 -13 0
38 6 17 19 -42 0
-30 -13 16 -6 28 0
-18 -17 -27 -37 10 0
11 2 -12 -16 -13 0
4 -40 -17 -42 -6 0
-3 -32 -13 47 18 0
-6 38 26 -14 -45 0
42 -36 -24 -23 -38 0
-20 11 33 -34 -36 0
35 10 -27 49 -33 0
-21 -22 -43 -10 49 0
-15 1 3 -38 -42 0
-43 31 -17 15 19 0
20 -46 7 -37 -16 0
4 -42 22 17 44 0
-35 36 43 30 34 0
45 33 49 28 50 0
-47 -48 -33 3 -43 0
22 46 1 -12 36 0
-18 27 -41 -33 -48 0
-50 1 -33 -9 40 0
7 28 -11 -12 38 0
-23 -34 47 37 -8 0
29 15 -38 -23 39 0
6 24 -26 -12 21 0
-47 -12 19 14 -22 0
45 14 2 48 31 0
-21 -19 29 -33 -37 0
22 -7 -13 -45 -24 0
14 -11 32 18 -38 0
49 22 5 32 28 0
-31 28 45 -20 17 0
-4 50 25 15 26 0
-36 -31 -27 -26 50 0
-21 2 41 20 -42 0
14 -17 11 -22 -1 0
-37 50 -25 32 -5 0
-17 -22 3 -43 41 0
-8 -45 21 5 -35 0
45 49 6 23 -3 0
-30 -43 -10 -32 26 0
-13 25 -41 -35 21 0
-23 3 24 -22 17 0
18 46 20 40 27 0
-44 -33 27 39 48 0
20 11 25 -9 -12 0
-16 -5 9 14 35 0
39 18 -33 21 -26 0
-31 -33 45 -23 -27 0
11 -8 28 46 -40 0
-49 -14 -24 2 -34 0
49 -7 -21 -44 14 0
6 -37 23 40 -46 0
4 31 -8 -42 7 0
-9 7 20 -39 34 0
24 19 8 -12 -46 0
6 15 -33 -50 43 0
-45 -30 -12 -18 33 0
37 -30 -19 17 -26 0
25 47 -19 31 6 0
-45 15 44 11 42 0
27 28 -46 38 -30 0
43 23 -39 -40 -7 0
39 29 45 13 50 0
-23 -31 -19 48 38 0
-22 23 18 33 47 0
-35 -13 -26 -33 -5 0
36 10 5 -50 -16 0
-27 -28 -12 -6 10 0
-29 -31 -8 47 -2 0
-19 20 36 -21 50 0
7 20 49 4 13 0
48 32 19 -6 11 0
21 -11 1 -9 32 0
-22 -1 3 -10 -34 0
37 27 39 5 40 0
5 18 -13 -1 -10 0
-1 22 -30 -25 36 0
11 16 -48 -28 -23 0
-7 -43 35 49 -1 0
18 -46 -42 -47 28 0
-32 -35 -10 43 34 0
37 -44 -32 40 -9 0
-37 -11 21 28 25 0
46 38 27 6 -4 0
28 -6 7 16 -26 0
-48 41 -5 -8 -50 0
43 -23 -27 -1 -36 0
25 45 -48 44 7 0
-37 47 -31 15 -45 0
-37 13 31 -50 -43 0
46 -27 5 23 -17 0
-16 -44 -48 -32 20 0
31 50 -49 -39 38 0
-39 -17 29 -45 24 0
-9 11 -40 32 -23 0
-36 47 4 21 -30 0
-1 21 37 -49 22 0
-46 -15 7 42 8 0
3 46 42 22 47 0
-37 -25 -22 -20 -31 0
-32 23 -14 49 11 0
-31 -34 -12 -30 1 0
10 -46 23 17 16 0
-16 -7 -25 15 -4 0
-39 -40 25 13 2 0
-28 -26 40 22 15 0
-24 -48 -37 33 -50 0
-20 7 -33 43 11 0
-34 41 -12 38 32 0
46 38 -8 -19 37 0
-10 -30 -35 -7 26 0
29 -2 -11 -31 -50 0
-32 50 -34 -39 -28 0
29 36 21 -31 30 0
-15 43 -33 -36 -48 0
4 35 11 3 -49 0
-21 33 16 -39 -12 0
2 16 -25 32 5 0
-49 -16 -33 -28 -34 0
17 26 48 -23 40 0
-9 41 3 -44 22 0
11 -18 -50 33 -40 0
-20 -31 30 13 24 0
5 -22 44 10 47 0
9 48 -19 42 11 0
12 -14 -3 -1 -40 0
2 -20 32 -18 -7 0
21 -35 38 4 28 0
6 -26 -13 9 27 0
15 2 12 -33 -43 0
11 -36 -16 43 -3 0
44 33 -20 38 49 0
28 33 47 38 -45 0
-24 15 5 6 -46 0
2 -18 -48 12 42 0
43 -21 50 -36 47 0
7 50 -18 44 39 0
1 -9 49 8 -13 0
-14 -22 41 -4 -2 0
-27 -19 -29 -50 -48 0
7 23 15 34 -26 0
-43 4 -50 25 -5 0
13 -1 11 32 -7 0
1 29 -38 31 -14 0
27 -23 33 -25 -13 0
29 46 5 27 14 0
15 20 7 -46 -28 0
1 -13 -2 -23 -18 0
7 -1 -2 -45 -29 0
-17 19 -22 24 -46 0
13 -11 15 -43 23 0
-49 -45 43 4 14 0
24 -14 16 -11 -9 0
-48 6 -49 29 23 0
-13 -12 -48 41 50 0
-1 44 -42 47 39 0
2 41 12 -43 29 0
-25 -26 4 -50 -16 0
31 2 -18 -33 -42 0
-49 -36 1 48 -5 0
-4 -15 -48 19 -36 0
-38 50 -17 -36 18 0
25 23 -27 10 -16 0
-1 -32 50 27 -24 0
29 13 9 42 -3 0
-33 -20 -25 -19 -4 0
12 19 25 11 -15 0
42 29 -3 -25 18 0
-17 -30 -13 -50 -35 0
-27 21 5 2 -30 0
5 -31 3 -7 34 0
5 19 10 -2 31 0
-5 -32 -41 9 -12 0
-10 7 38 1 37 0
-48 45 8 -46 -32 0
14 -47 1 38 11 0
48 -49 -38 45 20 0
-31 47 -35 22 -8 0
28 13 26 16 25 0
-40 -30 24 -48 44 0
-6 2 -22 26 -20 0
13 12 16 -24 -47 0
-32 -50 -26 17 -22 0
-25 -31 -46 -44 9 0
-6 30 7 11 12 0
-31 -34 42 20 22 0
46 -14 31 2 11 0
-49 37 42 -10 -27 0
50 48 -1 -34 6 0
25 -4 27 -29 48 0
-31 25 24 4 8 0
-6 36 -7 -16 -15 0
-3 -16 -36 -1 -33 0
-9 27 20 -32 -22 0
4 -35 -45 -41 9 0
47 -41 34 14 25 0
26 -23 35 -32 14 0
-40 -45 -46 3 31 0
43 -34 -7 49 42 0
18 -20 -49 -19 21 0
-36 39 -7 -50 12 0
-40 -13 -3 -43 24 0
-21 46 4 35 -10 0
29 1 -39 -31 35 0
-40 26 -30 -20 -23 0
10 -48 19 -32 -36 0
-19 35 -16 10 -50 0
-22 35 -32 -17 30 0
-12 13 27 -5 -19 0
-43 40 29 -46 17 0
33 12 -5 -26 38 0
8 -34 38 -49 -28 0
15 13 -17 -38 3 0
-38 47 -9 22 -43 0
-32 10 -16 -7 -38 0
11 -9 14 -35 1 0
-9 -7 16 3 -36 0
11 -38 -20 22 -36 0
5 -28 36 24 27 0
46 -42 40 33 -21 0
-45 22 41 -39 -38 0
-23 -35 -43 -24 -12 0
7 45 23 -31 -32 0
4 -6 7 -43 -45 0
43 12 -8 19 -46 0
17 41 -31 -44 30 0
-15 14 49 -13 26 0
4 -35 -33 3 18 0
-29 -47 -22 24 -16 0
28 -15 -8 -14 -34 0
-45 -24 -23 -6 -42 0
39 -42 -2 -6 -4 0
27 5 -12 -22 41 0
-9 39 -22 -14 -35 0
38 29 14 12 27 0
-44 -33 -30 27 -13 0
-11 -30 -21 -50 2 0
4 14 18 24 19 0
10 -31 -36 -30 16 0
-20 40 -13 -35 -45 0
-2 -12 34 20 17 0
-1 7 37 49 32 0
33 -17 -15 -2 -48 0
-24 -35 -30 6 23 0
-7 42 -12 -29 47 0
-35 -5 13 12 -46 0
-24 23 -39 -9 35 0
40 -19 -33 -36 13 0
42 -37 12 -6 -28 0
21 -2 46 -8 -45 0
-49 27 3 -23 -35 0
-18 31 15 -4 -33 0
-21 -30 -17 13 -4 0
7 -26 29 -35 43 0
-15 -11 -32 25 17 0
22 37 40 49 41 0
-18 -37 -33 -28 14 0
-33 -36 43 49 35 0
-36 -6 7 -15 37 0
20 -39 36 16 40 0
11 -40 -50 -22 48 0
-44 -50 -41 -45 -6 0
-30 15 -18 26 -2 0
-3 -42 -26 -11 7 0
47 26 45 31 -2 0
-21 -34 -4 5 -15 0
-42 19 -36 28 29 0
-13 4 -33 -35 7 0
-38 -40 21 -18 -37 0
39 21 -25 3 50 0
46 22 -13 31 -27 0
-41 14 21 3 6 0
-10 39 28 37 -9 0
-2 5 -4 -49 -50 0
-42 20 -10 12 -6 0
30 -35 -22 2 -36 0
-28 -8 19 -10 -14 0
-35 -8 -28 -42 39 0
38 -47 25 -10 28 0
-11 -33 -43 17 30 0
12 49 36 16 -28 0
-18 5 23 -26 -22 0
2 32 24 -25 -12 0
23 -3 -40 -36 -24 0
12 -33 -32 50 -23 0
-19 1 9 -33 38 0
-44 -14 19 -28 -36 0
42 15 -20 -26 -3 0
-14 2 -23 30 -3 0
-47 -21 13 17 14 0
21 14 23 -19 47 0
-42 -14 -5 24 -19 0
-24 -37 -6 -14 -2 0
-49 17 23 -12 -11 0
-14 40 -41 -48 -27 0
12 -5 -15 -3 22 0
30 -9 -31 18 -44 0
-10 12 -41 22 -47 0
43 29 -8 -22 14 0
-4 -48 -28 -35 39 0
18 -19 -6 50 3 0
8 37 31 10 30 0
-30 -16 29 26 -8 0
8 15 7 -14 -18 0
-28 14 40 30 -38 0
-4 -31 -50 14 -39 0
-22 3 -10 -21 29 0
4 -10 49 -32 -41 0
47 18 -3 -33 40 0
-31 -39 -3 -30 44 0
-24 19 -41 -43 -42 0
25 -48 -35 -6 33 0
-47 27 42 29 -11 0
-29 2 -41 5 16 0
-42 -25 -27 50 -32 0
37 34 36 3 13 0
14 -36 -32 48 37 0
-41 -44 -46 -27 -48 0
-48 -12 -21 6 -25 0
-18 27 -31 -34 -48 0
30 4 25 19 -40 0
18 10 -21 -27 8 0
-40 -18 43 24 10 0
8 16 28 -21 7 0
30 44 -47 15 -32 0
-47 42 -13 23 19 0
-20 50 -35 5 34 0
26 2 19 39 -45 0
21 27 -40 12 -32 0
-47 28 50 -41 -38 0
27 4 -3 5 -50 0
18 3 -38 -50 -34 0
10 -36 14 28 -22 0
-4 -28 -1 -9 -13 0
-33 -38 9 -32 -23 0
36 3 15 14 23 0
34 13 4 -10 -2 0
-25 16 -30 24 -9 0
38 -27 -18 13 -6 0
-34 32 -31 33 -2 0
15 26 50 27 -44 0
-9 44 -47 42 -27 0
42 -32 -17 -35 10 0
46 -27 18 -3 50 0
3 -34 -11 -8 31 0
20 -1 24 28 -17 0
-38 46 20 -25 -12 0
-8 25 -29 37 32 0
9 13 10 45 36 0
22 -26 21 11 -30 0
-44 28 -19 2 -42 0
-44 -7 26 30 20 0
12 20 41 43 10 0
50 -42 26 -45 -6 0
-32 24 -4 -9 8 0
10 11 47 -41 -39 0
-35 3 18 -46 -5 0
-27 38 -34 -42 -17 0
21 41 -2 6 -36 0
26 44 46 39 -33 0
-35 38 1 -15 36 0
20 2 40 49 13 0
-46 13 34 -22 -25 0
-7 -39 3 -9 -34 0
27 45 -38 19 -46 0
42 43 19 -14 18 0
16 22 -48 29 -21 0
42 2 -32 49 -18 0
42 10 -40 -37 -35 0
37 -6 8 44 4 0
-12 -48 13 -27 -21 0
45 36 10 3 42 0
-43 1 -37 -32 45 0
-36 11 28 10 20 0
35 -7 -30 -26 5 0
10 -14 35 47 -37 0
3 -1 37 31 21 0
-27 -1 -37 -36 16 0
18 -5 -3 46 -28 0
26 44 24 -16 27 0
32 29 9 18 17 0
45 -28 8 -15 39 0
-31 28 -45 3 18 0
39 -6 -34 23 24 0
37 -41 4 6 19 0
-22 18 48 -45 -47 0
-2 50 38 36 21 0
-50 -24 18 41 40 0
-43 -11 -31 34 -47 0
-40 -1 -26 -38 -45 0
11 -36 -44 15 18 0
6 31 45 2 38 0
-22 -29 -11 -38 -3 0
33 -27 -17 28 11 0
32 -21 -29 -6 12 0
-8 -17 -29 28 -26 0
27 -34 -11 -19 -36 0
-33 26 -19 16 39 0
-4 -6 -32 3 -41 0
50 -33 -18 -31 29 0
18 38 19 36 49 0
16 -24 -36 -25 9 0
13 3 49 47 23 0
-38 -21 4 -2 16 0
21 -42 13 15 -28 0
4 -18 -8 6 12 0
45 -19 -22 17 -2 0
3 36 13 -2 4 0
-39 -50 -6 18 -38 0
-22 -49 -11 27 16 0
-50 7 -22 45 -44 0
20 45 -4 41 -46 0
-50 21 -38 44 42 0
46 -13 15 -21 -4 0
-1 -5 51 0
1 -5 -51 0
-1 5 -51 0
1 5 51 0
-6 -7 52 0
6 -7 -52 0
-6 7 -52 0
6 7 52 0
-8 -11 53 0
8 -11 -53 0
-8 11 -53 0
8 11 53 0
-12 13 54 0
12 13 -54 0
-12 -13 -54 0
12 -13 54 0
-14 16 55 0
14 16 -55 0
-14 -16 -55 0
14 -16 55 0
-19 -21 56 0
19 -21 -56 0
-19 21 -56 0
19 21 56 0
-24 -25 57 0
24 -25 -57 0
-24 25 -57 0
24 25 57 0
27 30 58 0
-27 30 -58 0
27 -30 -58 0
-27 -30 58 0
-31 -32 59 0
31 -32 -59 0
-31 32 -59 0
31 32 59 0
-35 37 60 0
35 37 -60 0
-35 -37 -60 0
35 -37 60 0
38 42 61 0
-38 42 -61 0
38 -42 -61 0
-38 -42 61 0
-43 -45 62 0
43 -45 -62 0
-43 45 -62 0
43 45 62 0
50 -51 63 0
-50 -51 -63 0
50 51 -63 0
-50 51 63 0
52 -53 64 0
-52 -53 -64 0
52 53 -64 0
-52 53 64 0
54 -55 65 0
-54 -55 -65 0
54 55 -65 0
-54 55 65 0
56 -57 66 0
-56 -57 -66 0
56 57 -66 0
-56 57 66 0
58 -59 67 0
-58 -59 -67 0
58 59 -67 0
-58 59 67 0
60 -61 68 0
-60 -61 -68 0
60 61 -68 0
-60 61 68 0
62 -63 69 0
-62 -63 -69 0
62 63 -69 0
-62 63 69 0
64 -65 70 0
-64 -65 -70 0
64 65 -70 0
-64 65 70 0
66 -67 71 0
-66 -67 -71 0
66 67 -71 0
-66 67 71 0
68 -69 72 0
-68 -69 -72 0
68 69 -72 0
-68 69 72 0
70 -71 73 0
-70 -71 -73 0
70 71 -73 0
-70 71 73 0
72 73 0
-72 -73 0
-2 -3 74 0
2 -3 -74 0
-2 3 -74 0
2 3 74 0
-4 -5 75 0
4 -5 -75 0
-4 5 -75 0
4 5 75 0
-11 -14 76 0
11 -14 -76 0
-11 14 -76 0
11 14 76 0
-19 21 77 0
19 21 -77 0
-19 -21 -77 0
19 -21 77 0
24 26 78 0
-24 26 -78 0
24 -26 -78 0
-24 -26 78 0
27 -30 79 0
-27 -30 -79 0
27 30 -79 0
-27 30 79 0
-34 -36 80 0
34 -36 -80 0
-34 36 -80 0
34 36 80 0
-45 -46 81 0
45 -46 -81 0
-45 46 -81 0
45 46 81 0
-47 48 82 0
47 48 -82 0
-47 -48 -82 0
47 -48 82 0
73 -74 83 0
-73 -74 -83 0
73 74 -83 0
-73 74 83 0
75 -76 84 0
-75 -76 -84 0
75 76 -84 0
-75 76 84 0
77 -78 85 0
-77 -78 -85 0
77 78 -85 0
-77 78 85 0
79 -80 86 0
-79 -80 -86 0
79 80 -86 0
-79 80 86 0
81 -82 87 0
-81 -82 -87 0
81 82 -87 0
-81 82 87 0
83 -84 88 0
-83 -84 -88 0
83 84 -88 0
-83 84 88 0
85 -86 89 0
-85 -86 -89 0
85 86 -89 0
-85 86 89 0
-87 -88 89 0
87 -88 -89 0
-87 88 -89 0
87 88 89 0
1 3 90 0
-1 3 -90 0
1 -3 -90 0
-1 -3 90 0
6 -10 91 0
-6 -10 -91 0
6 10 -91 0
-6 10 91 0
-12 13 92 0
12 13 -92 0
-12 -13 -92 0
12 -13 92 0
16 19 93 0
-16 19 -93 0
16 -19 -93 0
-16 -19 93 0
21 -23 94 0
-21 -23 -94 0
21 23 -94 0
-21 23 94 0
24 -28 95 0
-24 -28 -95 0
24 28 -95 0
-24 28 95 0
-30 -31 96 0
30 -31 -96 0
-30 31 -96 0
30 31 96 0
-34 -36 97 0
34 -36 -97 0
-34 36 -97 0
34 36 97 0
-40 42 98 0
40 42 -98 0
-40 -42 -98 0
40 -42 98 0
-43 -44 99 0
43 -44 -99 0
-43 44 -99 0
43 44 99 0
89 -90 100 0
-89 -90 -100 0
89 90 -100 0
-89 90 100 0
91 -92 101 0
-91 -92 -101 0
91 92 -101 0
-91 92 101 0
93 -94 102 0
-93 -94 -102 0
93 94 -102 0
-93 94 102 0
95 -96 103 0
-95 -96 -103 0
95 96 -103 0
-95 96 103 0
97 -98 104 0
-97 -98 -104 0
97 98 -104 0
-97 98 104 0
99 -100 105 0
-99 -100 -105 0
99 100 -105 0
-99 100 105 0
101 -102 106 0
-101 -102 -106 0
101 102 -106 0
-101 102 106 0
103 -104 107 0
-103 -104 -107 0
103 104 -107 0
-103 104 107 0
-105 -106 107 0
105 -106 -107 0
-105 106 -107 0
105 106 107 0
1 -3 108 0
-1 -3 -108 0
1 3 -108 0
-1 3 108 0
5 6 109 0
-5 6 -109 0
5 -6 -109 0
-5 -6 109 0
7 -9 110 0
-7 -9 -110 0
7 9 -110 0
-7 9 110 0
11 13 111 0
-11 13 -111 0
11 -13 -111 0
-11 -13 111 0
-14 -16 112 0
14 -16 -112 0
-14 16 -112 0
14 16 112 0
-20 -23 113 0
20 -23 -113 0
-20 23 -113 0
20 23 113 0
-25 26 114 0
25 26 -114 0
-25 -26 -114 0
25 -26 114 0
27 -32 115 0
-27 -32 -115 0
27 32 -115 0
-27 32 115 0
-33 -34 116 0
33 -34 -116 0
-33 34 -116 0
33 34 116 0
35 -39 117 0
-35 -39 -117 0
35 39 -117 0
-35 39 117 0
45 -48 118 0
-45 -48 -118 0
45 48 -118 0
-45 48 118 0
107 -108 119 0
-107 -108 -119 0
107 108 -119 0
-107 108 119 0
109 -110 120 0
-109 -110 -120 0
109 110 -120 0
-109 110 120 0
111 -112 121 0
-111 -112 -121 0
111 112 -121 0
-111 112 121 0
113 -114 122 0
-113 -114 -122 0
113 114 -122 0
-113 114 122 0
115 -116 123 0
-115 -116 -123 0
115 116 -123 0
-115 116 123 0
117 -118 124 0
-117 -118 -124 0
117 118 -124 0
-117 118 124 0
119 -120 125 0
-119 -120 -125 0
119 120 -125 0
-119 120 125 0
121 -122 126 0
-121 -122 -126 0
121 122 -126 0
-121 122 126 0
123 -124 127 0
-123 -124 -127 0
123 124 -127 0
-123 124 127 0
-125 -126 127 0
125 -126 -127 0
-125 126 -127 0
125 126 127 0
-1 9 128 0
1 9 -128 0
-1 -9 -128 0
1 -9 128 0
12 13 129 0
-12 13 -129 0
12 -13 -129 0
-12 -13 129 0
-15 17 130 0
15 17 -130 0
-15 -17 -130 0
15 -17 130 0
18 -20 131 0
-18 -20 -131 0
18 20 -131 0
-18 20 131 0
-21 -22 132 0
21 -22 -132 0
-21 22 -132 0
21 22 132 0
23 24 133 0
-23 24 -133 0
23 -24 -133 0
-23 -24 133 0
-27 -28 134 0
27 -28 -134 0
-27 28 -134 0
27 28 134 0
31 -32 135 0
-31 -32 -135 0
31 32 -135 0
-31 32 135 0
-34 35 136 0
34 35 -136 0
-34 -35 -136 0
34 -35 136 0
42 44 137 0
-42 44 -137 0
42 -44 -137 0
-42 -44 137 0
45 47 138 0
-45 47 -138 0
45 -47 -138 0
-45 -47 138 0
127 -128 139 0
-127 -128 -139 0
127 128 -139 0
-127 128 139 0
129 -130 140 0
-129 -130 -140 0
129 130 -140 0
-129 130 140 0
131 -132 141 0
-131 -132 -141 0
131 132 -141 0
-131 132 141 0
133 -134 142 0
-133 -134 -142 0
133 134 -142 0
-133 134 142 0
135 -136 143 0
-135 -136 -143 0
135 136 -143 0
-135 136 143 0
137 -138 144 0
-137 -138 -144 0
137 138 -144 0
-137 138 144 0
139 -140 145 0
-139 -140 -145 0
139 140 -145 0
-139 140 145 0
141 -142 146 0
-141 -142 -146 0
141 142 -146 0
-141 142 146 0
143 -144 147 0
-143 -144 -147 0
143 144 -147 0
-143 144 147 0
-145 -146 147 0
145 -146 -147 0
-145 146 -147 0
145 146 147 0
1 -9 148 0
-1 -9 -148 0
1 9 -148 0
-1 9 148 0
-11 12 149 0
11 12 -149 0
-11 -12 -149 0
11 -12 149 0
13 14 150 0
-13 14 -150 0
13 -14 -150 0
-13 -14 150 0
15 -16 151 0
-15 -16 -151 0
15 16 -151 0
-15 16 151 0
-19 21 152 0
19 21 -152 0
-19 -21 -152 0
19 -21 152 0
-22 -23 153 0
22 -23 -153 0
-22 23 -153 0
22 23 153 0
-28 29 154 0
28 29 -154 0
-28 -29 -154 0
28 -29 154 0
30 -33 155 0
-30 -33 -155 0
30 33 -155 0
-30 33 155 0
-34 36 156 0
34 36 -156 0
-34 -36 -156 0
34 -36 156 0
37 38 157 0
-37 38 -157 0
37 -38 -157 0
-37 -38 157 0
-40 -42 158 0
40 -42 -158 0
-40 42 -158 0
40 42 158 0
44 45 159 0
-44 45 -159 0
44 -45 -159 0
-44 -45 159 0
48 -49 160 0
-48 -49 -160 0
48 49 -160 0
-48 49 160 0
147 -148 161 0
-147 -148 -161 0
147 148 -161 0
-147 148 161 0
149 -150 162 0
-149 -150 -162 0
149 150 -162 0
-149 150 162 0
151 -152 163 0
-151 -152 -163 0
151 152 -163 0
-151 152 163 0
153 -154 164 0
-153 -154 -164 0
153 154 -164 0
-153 154 164 0
155 -156 165 0
-155 -156 -165 0
155 156 -165 0
-155 156 165 0
157 -158 166 0
-157 -158 -166 0
157 158 -166 0
-157 158 166 0
159 -160 167 0
-159 -160 -167 0
159 160 -167 0
-159 160 167 0
161 -162 168 0
-161 -162 -168 0
161 162 -168 0
-161 162 168 0
163 -164 169 0
-163 -164 -169 0
163 164 -169 0
-163 164 169 0
165 -166 170 0
-165 -166 -170 0
165 166 -170 0
-165 166 170 0
167 -168 171 0
-167 -168 -171 0
167 168 -171 0
-167 168 171 0
169 -170 172 0
-169 -170 -172 0
169 170 -172 0
-169 170 172 0
171 172 0
-171 -172 0
3 5 173 0
-3 5 -173 0
3 -5 -173 0
-3 -5 173 0
-6 8 174 0
6 8 -174 0
-6 -8 -174 0
6 -8 174 0
-9 11 175 0
9 11 -175 0
-9 -11 -175 0
9 -11 175 0
12 13 176 0
-12 13 -176 0
12 -13 -176 0
-12 -13 176 0
-14 18 177 0
14 18 -177 0
-14 -18 -177 0
14 -18 177 0
20 21 178 0
-20 21 -178 0
20 -21 -178 0
-20 -21 178 0
24 -26 179 0
-24 -26 -179 0
24 26 -179 0
-24 26 179 0
28 -30 180 0
-28 -30 -180 0
28 30 -180 0
-28 30 180 0
33 -35 181 0
-33 -35 -181 0
33 35 -181 0
-33 35 181 0
36 -42 182 0
-36 -42 -182 0
36 42 -182 0
-36 42 182 0
44 45 183 0
-44 45 -183 0
44 -45 -183 0
-44 -45 183 0
173 -174 184 0
-173 -174 -184 0
173 174 -184 0
-173 174 184 0
175 -176 185 0
-175 -176 -185 0
175 176 -185 0
-175 176 185 0
177 -178 186 0
-177 -178 -186 0
177 178 -186 0
-177 178 186 0
179 -180 187 0
-179 -180 -187 0
179 180 -187 0
-179 180 187 0
181 -182 188 0
-181 -182 -188 0
181 182 -188 0
-181 182 188 0
183 -184 189 0
-183 -184 -189 0
183 184 -189 0
-183 184 189 0
185 -186 190 0
-185 -186 -190 0
185 186 -190 0
-185 186 190 0
187 -188 191 0
-187 -188 -191 0
187 188 -191 0
-187 188 191 0
-189 -190 191 0
189 -190 -191 0
-189 190 -191 0
189 190 191 0
1 3 192 0
-1 3 -192 0
1 -3 -192 0
-1 -3 192 0
4 -6 193 0
-4 -6 -193 0
4 6 -193 0
-4 6 193 0
8 10 194 0
-8 10 -194 0
8 -10 -194 0
-8 -10 194 0
11 -14 195 0
-11 -14 -195 0
11 14 -195 0
-11 14 195 0
16 -17 196 0
-16 -17 -196 0
16 17 -196 0
-16 17 196 0
-19 24 197 0
19 24 -197 0
-19 -24 -197 0
19 -24 197 0
-25 26 198 0
25 26 -198 0
-25 -26 -198 0
25 -26 198 0
29 31 199 0
-29 31 -199 0
29 -31 -199 0
-29 -31 199 0
33 35 200 0
-33 35 -200 0
33 -35 -200 0
-33 -35 200 0
38 -39 201 0
-38 -39 -201 0
38 39 -201 0
-38 39 201 0
-40 42 202 0
40 42 -202 0
-40 -42 -202 0
40 -42 202 0
46 47 203 0
-46 47 -203 0
46 -47 -203 0
-46 -47 203 0
191 -192 204 0
-191 -192 -204 0
191 192 -204 0
-191 192 204 0
193 -194 205 0
-193 -194 -205 0
193 194 -205 0
-193 194 205 0
195 -196 206 0
-195 -196 -206 0
195 196 -206 0
-195 196 206 0
197 -198 207 0
-197 -198 -207 0
197 198 -207 0
-197 198 207 0
199 -200 208 0
-199 -200 -208 0
199 200 -208 0
-199 200 208 0
201 -202 209 0
-201 -202 -209 0
201 202 -209 0
-201 202 209 0
203 -204 210 0
-203 -204 -210 0
203 204 -210 0
-203 204 210 0
205 -206 211 0
-205 -206 -211 0
205 206 -211 0
-205 206 211 0
207 -208 212 0
-207 -208 -212 0
207 208 -212 0
-207 208 212 0
209 -210 213 0
-209 -210 -213 0
209 210 -213 0
-209 210 213 0
211 -212 214 0
-211 -212 -214 0
211 212 -214 0
-211 212 214 0
213 214 0
-213 -214 0
1 -7 215 0
-1 -7 -215 0
1 7 -215 0
-1 7 215 0
-9 10 216 0
9 10 -216 0
-9 -10 -216 0
9 -10 216 0
-18 -20 217 0
18 -20 -217 0
-18 20 -217 0
18 20 217 0
21 23 218 0
-21 23 -218 0
21 -23 -218 0
-21 -23 218 0
25 -26 219 0
-25 -26 -219 0
25 26 -219 0
-25 26 219 0
27 28 220 0
-27 28 -220 0
27 -28 -220 0
-27 -28 220 0
30 -31 221 0
-30 -31 -221 0
30 31 -221 0
-30 31 221 0
-33 -35 222 0
33 -35 -222 0
-33 35 -222 0
33 35 222 0
-36 37 223 0
36 37 -223 0
-36 -37 -223 0
36 -37 223 0
-40 41 224 0
40 41 -224 0
-40 -41 -224 0
40 -41 224 0
47 48 225 0
-47 48 -225 0
47 -48 -225 0
-47 -48 225 0
214 -215 226 0
-214 -215 -226 0
214 215 -226 0
-214 215 226 0
216 -217 227 0
-216 -217 -227 0
216 217 -227 0
-216 217 227 0
218 -219 228 0
-218 -219 -228 0
218 219 -228 0
-218 219 228 0
220 -221 229 0
-220 -221 -229 0
220 221 -229 0
-220 221 229 0
222 -223 230 0
-222 -223 -230 0
222 223 -230 0
-222 223 230 0
224 -225 231 0
-224 -225 -231 0
224 225 -231 0
-224 225 231 0
226 -227 232 0
-226 -227 -232 0
226 227 -232 0
-226 227 232 0
228 -229 233 0
-228 -229 -233 0
228 229 -233 0
-228 229 233 0
230 -231 234 0
-230 -231 -234 0
230 231 -234 0
-230 231 234 0
-232 -233 234 0
232 -233 -234 0
-232 233 -234 0
232 233 234 0
5 -7 235 0
-5 -7 -235 0
5 7 -235 0
-5 7 235 0
-8 -9 236 0
8 -9 -236 0
-8 9 -236 0
8 9 236 0
10 13 237 0
-10 13 -237 0
10 -13 -237 0
-10 -13 237 0
-14 -15 238 0
14 -15 -238 0
-14 15 -238 0
14 15 238 0
-16 20 239 0
16 20 -239 0
-16 -20 -239 0
16 -20 239 0
27 31 240 0
-27 31 -240 0
27 -31 -240 0
-27 -31 240 0
40 42 241 0
-40 42 -241 0
40 -42 -241 0
-40 -42 241 0
-43 -44 242 0
43 -44 -242 0
-43 44 -242 0
43 44 242 0
-46 48 243 0
46 48 -243 0
-46 -48 -243 0
46 -48 243 0
235 -236 244 0
-235 -236 -244 0
235 236 -244 0
-235 236 244 0
237 -238 245 0
-237 -238 -245 0
237 238 -245 0
-237 238 245 0
239 -240 246 0
-239 -240 -246 0
239 240 -246 0
-239 240 246 0
241 -242 247 0
-241 -242 -247 0
241 242 -247 0
-241 242 247 0
243 -244 248 0
-243 -244 -248 0
243 244 -248 0
-243 244 248 0
245 -246 249 0
-245 -246 -249 0
245 246 -249 0
-245 246 249 0
-247 -248 249 0
247 -248 -249 0
-247 248 -249 0
247 248 249 0
